proyfinal/src/viki/013/andrea/andrea-localstore/experimentInOfficeAgust.take6/worker_5/05e28787-5d73-4413-b7cf-7d8ea3e71f4a.als.cnf.out
Reading from standard input... Use '--help' for help.
============================[ Problem Statistics ]=============================
|                                                                             |
|  Number of variables:         87638                                         |
|  Number of clauses:          161767                                         |
|  Parse time:                   0.03 s                                       |
|                                                                             |
============================[ Search Statistics ]==============================
| Conflicts |          ORIGINAL         |          LEARNT          | Progress |
|           |    Vars  Clauses Literals |    Limit  Clauses Lit/Cl |          |
===============================================================================
|       100 |   63574   109589   274089 |    40182      100     18 | 27.458 % |
|       250 |   63574   109589   274089 |    44200      250     26 | 27.458 % |
|       475 |   43992   109573   274045 |    48620      431     26 | 49.803 % |
|       812 |   43992    50994   129934 |    53483      696     36 | 49.803 % |
|      1318 |   43979    50935   129767 |    58831     1114     31 | 49.817 % |
|      2077 |   43879    50587   128840 |    64714     1801     30 | 49.932 % |
===============================================================================
restarts              : 15
conflicts             : 2790           (12505 /sec)
decisions             : 10716          (0.00 % random) (48031 /sec)
propagations          : 3548422        (15904504 /sec)
conflict literals     : 74050          (32.51 % deleted)
Memory used           : 20.64 MB
CPU time              : 0.223108 s

UNSATISFIABLE
